Version identifier: 22.1.1.0 | 2022-11-28 | 9160aff4d
CPXPARAM_TimeLimit                               3600
Tried aggregator 1 time.
MIP Presolve eliminated 256 rows and 207 columns.
Reduced MIP has 4944 rows, 2396 columns, and 14734 nonzeros.
Reduced MIP has 2396 binaries, 0 generals, 0 SOSs, and 0 indicators.
Presolve time = 0.01 sec. (11.87 ticks)
Found incumbent of value 3775769.000000 after 0.01 sec. (14.36 ticks)
Probing time = 0.00 sec. (3.43 ticks)
Tried aggregator 1 time.
Detecting symmetries...
Reduced MIP has 4944 rows, 2396 columns, and 14734 nonzeros.
Reduced MIP has 2396 binaries, 0 generals, 0 SOSs, and 0 indicators.
Presolve time = 0.01 sec. (12.77 ticks)
Probing time = 0.01 sec. (3.43 ticks)
Clique table members: 2294.
MIP emphasis: balance optimality and feasibility.
MIP search method: dynamic search.
Parallel mode: deterministic, using up to 8 threads.
Root relaxation solution time = 0.01 sec. (9.66 ticks)

        Nodes                                         Cuts/
   Node  Left     Objective  IInf  Best Integer    Best Bound    ItCnt     Gap

*     0+    0                      3775769.0000        0.0000           100.00%
*     0+    0                      1512277.0000        0.0000           100.00%
*     0+    0                       753097.0000        0.0000           100.00%
*     0+    0                       702845.0000        0.0000           100.00%
      0     0    93774.0000   100   702845.0000    93774.0000      162   86.66%
      0     0   106217.5000   100   702845.0000     Cuts: 143      267   84.89%
*     0+    0                       138086.0000   106217.5000            23.08%
      0     0   118204.0000    84   138086.0000     Cuts: 139      386   14.40%
*     0+    0                       130832.0000   118204.0000             9.65%
Detecting symmetries...

Repeating presolve.
Tried aggregator 1 time.
MIP Presolve eliminated 4456 rows and 1974 columns.
MIP Presolve modified 344 coefficients.
Reduced MIP has 488 rows, 422 columns, and 1667 nonzeros.
Reduced MIP has 422 binaries, 0 generals, 0 SOSs, and 0 indicators.
Presolve time = 0.00 sec. (3.86 ticks)
Probing time = 0.00 sec. (0.36 ticks)
Tried aggregator 1 time.
Detecting symmetries...
Reduced MIP has 488 rows, 422 columns, and 1667 nonzeros.
Reduced MIP has 422 binaries, 0 generals, 0 SOSs, and 0 indicators.
Presolve time = 0.00 sec. (1.77 ticks)
Represolve time = 0.01 sec. (10.52 ticks)
Probing time = 0.00 sec. (0.36 ticks)
Clique table members: 459.
MIP emphasis: balance optimality and feasibility.
MIP search method: dynamic search.
Parallel mode: deterministic, using up to 8 threads.
Root relaxation solution time = 0.00 sec. (3.69 ticks)

        Nodes                                         Cuts/
   Node  Left     Objective  IInf  Best Integer    Best Bound    ItCnt     Gap

*     0+    0                       130832.0000   118204.0000             9.65%
      0     0   122087.0000    80   130832.0000   122087.0000      573    6.68%
      0     0        cutoff         130832.0000   130832.0000      649    0.00%
Elapsed time = 0.21 sec. (150.80 ticks, tree = 0.01 MB, solutions = 6)

Cover cuts applied:  1
Implied bound cuts applied:  212
Zero-half cuts applied:  2
Lift and project cuts applied:  1
Gomory fractional cuts applied:  1

Root node processing (before b&c):
  Real time             =    0.21 sec. (150.97 ticks)
Parallel b&c, 8 threads:
  Real time             =    0.00 sec. (0.00 ticks)
  Sync time (average)   =    0.00 sec.
  Wait time (average)   =    0.00 sec.
                          ------------
Total (root+branch&cut) =    0.21 sec. (150.97 ticks)
Status: Optimal
Obj: 130832

Instalacoes abertas:
Instalação 4 aberta
Instalação 9 aberta
Instalação 22 aberta

Atribuições (cliente -> instalação):
Cliente 0 -> Instalação 4
Cliente 1 -> Instalação 4
Cliente 2 -> Instalação 4
Cliente 3 -> Instalação 9
Cliente 4 -> Instalação 4
Cliente 5 -> Instalação 9
Cliente 6 -> Instalação 4
Cliente 7 -> Instalação 9
Cliente 8 -> Instalação 4
Cliente 9 -> Instalação 9
Cliente 10 -> Instalação 4
Cliente 11 -> Instalação 4
Cliente 12 -> Instalação 9
Cliente 13 -> Instalação 4
Cliente 14 -> Instalação 4
Cliente 15 -> Instalação 4
Cliente 16 -> Instalação 4
Cliente 17 -> Instalação 4
Cliente 18 -> Instalação 4
Cliente 19 -> Instalação 9
Cliente 20 -> Instalação 4
Cliente 21 -> Instalação 9
Cliente 22 -> Instalação 22
Cliente 23 -> Instalação 9
Cliente 24 -> Instalação 22
Cliente 25 -> Instalação 9
Cliente 26 -> Instalação 9
Cliente 27 -> Instalação 9
Cliente 28 -> Instalação 9
Cliente 29 -> Instalação 9
Cliente 30 -> Instalação 9
Cliente 31 -> Instalação 4
Cliente 32 -> Instalação 9
Cliente 33 -> Instalação 4
Cliente 34 -> Instalação 9
Cliente 35 -> Instalação 9
Cliente 36 -> Instalação 4
Cliente 37 -> Instalação 9
Cliente 38 -> Instalação 4
Cliente 39 -> Instalação 9
Cliente 40 -> Instalação 22
Cliente 41 -> Instalação 9
Cliente 42 -> Instalação 9
Cliente 43 -> Instalação 9
Cliente 44 -> Instalação 9
Cliente 45 -> Instalação 9
Cliente 46 -> Instalação 4
Cliente 47 -> Instalação 9
Cliente 48 -> Instalação 9
Cliente 49 -> Instalação 4
